k = 84;
b = 42;
AtomicConstraints =  [|
6, 52|
	6, 19|
	6, 20|
	6, 21|
	6, 22|
	6, 23|
	6, 54|
	6, 46|
	6, 45|
	6, 24|
	6, 25|
	6, 26|
	6, 27|
	6, 53|
	6, 28|
	7, 52|
	7, 19|
	7, 20|
	7, 21|
	7, 22|
	7, 23|
	7, 54|
	7, 46|
	7, 45|
	7, 24|
	7, 25|
	7, 26|
	7, 27|
	7, 53|
	7, 28|
	8, 52|
	8, 19|
	8, 20|
	8, 21|
	8, 22|
	8, 23|
	8, 54|
	8, 46|
	8, 45|
	8, 24|
	8, 25|
	8, 26|
	8, 27|
	8, 53|
	8, 28|
	9, 52|
	9, 19|
	9, 20|
	9, 21|
	9, 22|
	9, 23|
	9, 54|
	9, 46|
	9, 45|
	9, 24|
	9, 25|
	9, 26|
	9, 27|
	9, 53|
	9, 28|
	10, 52|
	10, 19|
	10, 20|
	10, 21|
	10, 22|
	10, 23|
	10, 54|
	10, 46|
	10, 45|
	10, 24|
	10, 25|
	10, 26|
	10, 27|
	10, 53|
	10, 28|
	10, 41|
	11, 52|
	11, 19|
	11, 20|
	11, 21|
	11, 22|
	11, 23|
	11, 54|
	11, 46|
	11, 45|
	11, 24|
	11, 25|
	11, 26|
	11, 27|
	11, 53|
	11, 28|
	11, 41|
	11, 42|
	12, 52|
	12, 19|
	12, 20|
	12, 21|
	12, 22|
	12, 23|
	12, 54|
	12, 46|
	12, 45|
	12, 24|
	12, 25|
	12, 26|
	12, 27|
	12, 53|
	12, 28|
	12, 41|
	12, 42|
	13, 52|
	13, 19|
	13, 20|
	13, 21|
	13, 22|
	13, 23|
	13, 54|
	13, 46|
	13, 45|
	13, 24|
	13, 25|
	13, 26|
	13, 27|
	13, 53|
	13, 28|
	15, 1|
	15, 2|
	15, 3|
	15, 4|
	15, 5|
	16, 1|
	16, 2|
	16, 3|
	16, 4|
	16, 5|
	52, 19|
	52, 53|
	52, 28|
	46, 19|
	46, 20|
	46, 53|
	46, 28|
	45, 19|
	45, 20|
	45, 21|
	45, 28|
	24, 19|
	24, 20|
	24, 21|
	24, 22|
	25, 20|
	25, 21|
	25, 22|
	25, 23|
	26, 21|
	26, 22|
	26, 23|
	26, 54|
	27, 22|
	27, 23|
	27, 54|
	29, 77|
	29, 38|
	29, 39|
	29, 40|
	29, 76|
	29, 58|
	29, 57|
	29, 41|
	29, 42|
	30, 77|
	30, 38|
	30, 39|
	30, 40|
	30, 76|
	30, 58|
	30, 57|
	30, 41|
	30, 42|
	31, 77|
	31, 38|
	31, 39|
	31, 40|
	31, 76|
	31, 58|
	31, 57|
	31, 41|
	31, 42|
	32, 77|
	32, 38|
	32, 39|
	32, 40|
	32, 76|
	32, 58|
	32, 57|
	32, 41|
	32, 42|
	33, 77|
	33, 38|
	33, 39|
	33, 40|
	33, 76|
	33, 58|
	33, 57|
	33, 41|
	33, 42|
	34, 1|
	34, 2|
	34, 3|
	34, 4|
	34, 5|
	34, 19|
	34, 20|
	34, 21|
	34, 22|
	34, 23|
	34, 54|
	34, 45|
	34, 24|
	34, 25|
	34, 26|
	34, 27|
	35, 1|
	35, 2|
	35, 3|
	35, 4|
	35, 5|
	35, 19|
	35, 20|
	35, 21|
	35, 22|
	35, 23|
	35, 54|
	35, 46|
	35, 45|
	35, 24|
	35, 25|
	35, 26|
	35, 27|
	35, 28|
	36, 1|
	36, 2|
	36, 3|
	36, 4|
	36, 5|
	36, 23|
	36, 54|
	36, 27|
	37, 1|
	37, 2|
	37, 3|
	37, 4|
	37, 5|
	37, 22|
	37, 23|
	37, 54|
	37, 26|
	37, 27|
	76, 77|
	58, 77|
	58, 76|
	57, 77|
	57, 76|
	84, 80|
	84, 81|
	84, 82|
	84, 70|
	61, 47|
	61, 84|
	61, 80|
	61, 81|
	61, 82|
	61, 83|
	62, 47|
	62, 84|
	62, 80|
	62, 81|
	62, 82|
	62, 70|
	62, 83|
	66, 47|
	66, 61|
	66, 80|
	66, 81|
	66, 83|
	63, 47|
	63, 84|
	63, 61|
	63, 80|
	63, 81|
	63, 82|
	63, 83|
	64, 47|
	64, 84|
	64, 61|
	64, 62|
	64, 80|
	64, 81|
	64, 82|
	64, 70|
	64, 83|
	65, 47|
	65, 84|
	65, 62|
	65, 80|
	65, 81|
	65, 82|
	65, 70|
	65, 83|
	44, 47|
	44, 61|
	44, 66|
	44, 80|
	44, 63|
	44, 81|
	44, 83|
	67, 47|
	67, 84|
	67, 61|
	67, 66|
	67, 80|
	67, 63|
	67, 64|
	67, 81|
	67, 82|
	67, 83|
	68, 47|
	68, 84|
	68, 61|
	68, 62|
	68, 66|
	68, 80|
	68, 63|
	68, 64|
	68, 81|
	68, 82|
	68, 83|
	69, 47|
	69, 84|
	69, 61|
	69, 62|
	69, 66|
	69, 80|
	69, 63|
	69, 64|
	69, 65|
	69, 81|
	69, 82|
	69, 70|
	69, 83|
	43, 47|
	43, 61|
	43, 66|
	43, 80|
	43, 63|
	43, 44|
	43, 67|
	43, 68|
	43, 81|
	43, 83|
	71, 47|
	71, 84|
	71, 61|
	71, 66|
	71, 80|
	71, 63|
	71, 64|
	71, 44|
	71, 67|
	71, 68|
	71, 69|
	71, 81|
	71, 82|
	71, 83|
	72, 47|
	72, 84|
	72, 61|
	72, 62|
	72, 66|
	72, 80|
	72, 63|
	72, 64|
	72, 44|
	72, 67|
	72, 68|
	72, 69|
	72, 81|
	72, 82|
	72, 83|
	73, 47|
	73, 84|
	73, 61|
	73, 62|
	73, 66|
	73, 80|
	73, 63|
	73, 64|
	73, 65|
	73, 67|
	73, 68|
	73, 69|
	73, 81|
	73, 82|
	73, 70|
	73, 83|
	74, 47|
	74, 84|
	74, 61|
	74, 62|
	74, 66|
	74, 80|
	74, 63|
	74, 64|
	74, 65|
	74, 68|
	74, 69|
	74, 81|
	74, 82|
	74, 70|
	74, 83|
	75, 47|
	75, 84|
	75, 61|
	75, 62|
	75, 66|
	75, 80|
	75, 63|
	75, 64|
	75, 65|
	75, 69|
	75, 81|
	75, 82|
	75, 70|
	75, 83|
	78, 47|
	78, 61|
	78, 66|
	78, 80|
	78, 63|
	78, 44|
	78, 67|
	78, 68|
	78, 81|
	78, 43|
	78, 71|
	78, 72|
	78, 83|
	55, 47|
	55, 84|
	55, 61|
	55, 66|
	55, 80|
	55, 63|
	55, 64|
	55, 44|
	55, 67|
	55, 68|
	55, 69|
	55, 81|
	55, 43|
	55, 71|
	55, 72|
	55, 73|
	55, 82|
	55, 83|
	48, 47|
	48, 84|
	48, 61|
	48, 62|
	48, 66|
	48, 80|
	48, 63|
	48, 64|
	48, 44|
	48, 67|
	48, 68|
	48, 69|
	48, 81|
	48, 43|
	48, 71|
	48, 72|
	48, 73|
	48, 74|
	48, 82|
	48, 83|
	49, 47|
	49, 84|
	49, 61|
	49, 62|
	49, 66|
	49, 80|
	49, 63|
	49, 64|
	49, 65|
	49, 44|
	49, 67|
	49, 68|
	49, 69|
	49, 81|
	49, 43|
	49, 71|
	49, 72|
	49, 73|
	49, 74|
	49, 75|
	49, 82|
	49, 70|
	49, 83|
	50, 47|
	50, 84|
	50, 61|
	50, 62|
	50, 66|
	50, 80|
	50, 63|
	50, 64|
	50, 65|
	50, 44|
	50, 67|
	50, 68|
	50, 69|
	50, 81|
	50, 43|
	50, 71|
	50, 72|
	50, 73|
	50, 74|
	50, 75|
	50, 82|
	50, 70|
	50, 83|
	51, 47|
	51, 84|
	51, 61|
	51, 62|
	51, 66|
	51, 80|
	51, 63|
	51, 64|
	51, 65|
	51, 44|
	51, 67|
	51, 68|
	51, 69|
	51, 81|
	51, 71|
	51, 72|
	51, 73|
	51, 74|
	51, 75|
	51, 82|
	51, 70|
	51, 83|
	79, 47|
	79, 61|
	79, 66|
	79, 80|
	79, 63|
	79, 44|
	79, 67|
	79, 68|
	79, 81|
	79, 43|
	79, 71|
	79, 72|
	79, 78|
	79, 55|
	79, 48|
	79, 83|
	59, 47|
	59, 84|
	59, 61|
	59, 66|
	59, 80|
	59, 63|
	59, 64|
	59, 44|
	59, 67|
	59, 68|
	59, 69|
	59, 81|
	59, 43|
	59, 71|
	59, 72|
	59, 73|
	59, 78|
	59, 55|
	59, 48|
	59, 82|
	59, 49|
	59, 83|
	60, 47|
	60, 84|
	60, 61|
	60, 62|
	60, 66|
	60, 80|
	60, 63|
	60, 64|
	60, 65|
	60, 44|
	60, 67|
	60, 68|
	60, 69|
	60, 81|
	60, 43|
	60, 71|
	60, 72|
	60, 73|
	60, 74|
	60, 75|
	60, 55|
	60, 48|
	60, 82|
	60, 49|
	60, 50|
	60, 51|
	60, 70|
	60, 83|
	56, 47|
	56, 84|
	56, 61|
	56, 62|
	56, 66|
	56, 80|
	56, 63|
	56, 64|
	56, 65|
	56, 44|
	56, 67|
	56, 68|
	56, 69|
	56, 81|
	56, 43|
	56, 71|
	56, 72|
	56, 73|
	56, 74|
	56, 75|
	56, 82|
	56, 49|
	56, 50|
	56, 51|
	56, 70|
	56, 83|
	83, 47|
	83, 80|
	83, 81|
	83, 82|];
DisjunctiveConstraints =  [|2, 1, 2, 3|
	3, 2, 3, 4|
	4, 3, 4, 5|
	6, 7, 6, 13|
	7, 8, 7, 6|
	8, 9, 8, 7|
	9, 10, 9, 8|
	10, 11, 10, 9|
	10, 42, 84, 10|
	11, 12, 11, 10|
	11, 83, 11, 41|
	12, 84, 12, 42|
	15, 1, 43, 15|
	15, 2, 15, 44|
	16, 1, 16, 43|
	18, 14, 18, 17|
	19, 28, 19, 20|
	20, 19, 20, 21|
	21, 20, 21, 22|
	22, 21, 22, 23|
	23, 22, 23, 54|
	46, 52, 46, 45|
	45, 46, 45, 24|
	24, 45, 24, 25|
	25, 24, 25, 26|
	26, 25, 26, 27|
	28, 53, 28, 19|
	30, 31, 30, 29|
	31, 32, 31, 30|
	32, 33, 32, 31|
	32, 78, 36, 32|
	32, 79, 37, 32|
	34, 20, 34, 62|
	34, 45, 3, 34|
	34, 24, 34, 66|
	34, 28, 70, 34|
	35, 3, 35, 45|
	35, 19, 35, 61|
	35, 46, 4, 35|
	36, 22, 64, 36|
	36, 54, 36, 12|
	36, 27, 69, 36|
	37, 21, 63, 37|
	37, 23, 37, 65|
	37, 26, 68, 37|
	37, 27, 37, 69|
	39, 40, 39, 38|
	58, 77, 35, 58|
	58, 76, 34, 58|
	57, 34, 57, 76|
	57, 77, 57, 35|
	62, 70, 28, 62|
	66, 80, 38, 66|
	63, 64, 63, 66|
	63, 81, 39, 63|
	63, 83, 41, 63|
	64, 65, 64, 63|
	80, 81, 80, 47|
	44, 63, 21, 44|
	44, 80, 38, 44|
	67, 61, 19, 67|
	67, 68, 67, 44|
	67, 81, 39, 67|
	67, 83, 41, 67|
	68, 84, 42, 68|
	68, 64, 22, 68|
	68, 69, 68, 67|
	68, 82, 40, 68|
	68, 83, 68, 41|
	69, 84, 69, 42|
	69, 62, 20, 69|
	43, 5, 43, 47|
	43, 63, 21, 43|
	43, 80, 38, 43|
	71, 61, 19, 71|
	71, 80, 71, 38|
	71, 81, 39, 71|
	71, 72, 71, 43|
	71, 83, 41, 71|
	72, 84, 42, 72|
	72, 64, 22, 72|
	72, 73, 72, 71|
	72, 81, 72, 39|
	72, 82, 40, 72|
	72, 83, 72, 41|
	73, 84, 73, 42|
	73, 62, 20, 73|
	73, 74, 73, 72|
	73, 82, 73, 40|
	81, 82, 81, 80|
	74, 65, 23, 74|
	74, 75, 74, 73|
	74, 70, 28, 74|
	75, 28, 75, 70|
	78, 5, 78, 47|
	78, 24, 78, 66|
	78, 63, 21, 78|
	78, 80, 38, 78|
	78, 67, 25, 78|
	55, 21, 55, 63|
	55, 61, 19, 55|
	55, 80, 55, 38|
	55, 68, 26, 55|
	55, 81, 39, 55|
	55, 48, 55, 78|
	55, 83, 41, 55|
	48, 19, 48, 61|
	48, 84, 42, 48|
	48, 64, 22, 48|
	48, 69, 27, 48|
	48, 81, 48, 39|
	48, 49, 48, 55|
	48, 82, 40, 48|
	48, 83, 48, 41|
	49, 22, 49, 64|
	49, 84, 49, 42|
	49, 62, 20, 49|
	49, 50, 49, 48|
	49, 82, 49, 40|
	50, 20, 50, 62|
	50, 65, 23, 50|
	50, 51, 50, 49|
	50, 70, 28, 50|
	51, 23, 51, 65|
	51, 28, 51, 70|
	79, 5, 79, 47|
	79, 24, 79, 66|
	79, 63, 21, 79|
	79, 80, 38, 79|
	79, 67, 25, 79|
	59, 21, 59, 63|
	59, 61, 19, 59|
	59, 80, 59, 38|
	59, 68, 26, 59|
	59, 81, 39, 59|
	59, 60, 59, 79|
	59, 83, 41, 59|
	82, 70, 82, 81|
	60, 22, 60, 64|
	60, 84, 60, 42|
	60, 62, 20, 60|
	60, 82, 60, 40|
	60, 56, 60, 59|
	60, 70, 28, 60|
	56, 23, 56, 65|
	56, 28, 56, 70|];
SoftAtomicConstraints =  [|
1, 2|
2, 3|
3, 4|
4, 5|
7, 6|
8, 7|
9, 8|
10, 9|
11, 10|
12, 11|
6, 13|
15, 14|
16, 15|
34, 16|
18, 17|
14, 18|
28, 19|
19, 20|
20, 21|
21, 22|
22, 23|
45, 24|
24, 25|
25, 26|
26, 27|
53, 28|
30, 29|
31, 30|
32, 31|
33, 32|
35, 34|
37, 36|
39, 38|
40, 39|
42, 41|
71, 43|
67, 44|
46, 45|
52, 46|
80, 47|
49, 48|
50, 49|
51, 50|
23, 54|
48, 55|
57, 58|
60, 59|
56, 60|
62, 61|
64, 63|
65, 64|
63, 66|
68, 67|
69, 68|
72, 71|
73, 72|
74, 73|
75, 74|
38, 77|
55, 78|
59, 79|
81, 80|
82, 81|
70, 82|
84, 83|];
DirectSuccessors =  [];
